* #variable= 59 #constraint= 143
****************************************
min: +10 x30 +10 x31 +10 x32 +10 x33 +10 x34 +10 x35 +10 x36 +10 x37 +10 x38 +10 x39 +10 x40 +10 x41 +10 x42 +10 x43 +10 x44 +10 x45 +10 x46 +10 x47 +10 x48 +10 x49 +10 x50 +10 x51 +1 x52 +1 x53 +1 x54 +1 x55 +1 x56 +1 x57 +1 x58 ;
+1 x0 +1 x1 +1 x8 +1 x9 +1 x30 >= 1 ;
-1 x0 +1 x1 -1 x8 +1 x9 +1 x30 >= -1 ;
+1 x0 -1 x1 +1 x8 -1 x9 +1 x30 >= -1 ;
-1 x0 -1 x1 -1 x8 -1 x9 +1 x30 >= -3 ;
+1 x0 +1 x1 +1 x10 +1 x11 +1 x30 >= 1 ;
-1 x0 +1 x1 -1 x10 +1 x11 +1 x30 >= -1 ;
+1 x0 -1 x1 +1 x10 -1 x11 +1 x30 >= -1 ;
-1 x0 -1 x1 -1 x10 -1 x11 +1 x30 >= -3 ;
+1 x0 +1 x1 +1 x12 +1 x13 +1 x31 >= 1 ;
-1 x0 +1 x1 -1 x12 +1 x13 +1 x31 >= -1 ;
+1 x0 -1 x1 +1 x12 -1 x13 +1 x31 >= -1 ;
-1 x0 -1 x1 -1 x12 -1 x13 +1 x31 >= -3 ;
+1 x0 +1 x1 +1 x14 +1 x15 +1 x32 >= 1 ;
-1 x0 +1 x1 -1 x14 +1 x15 +1 x32 >= -1 ;
+1 x0 -1 x1 +1 x14 -1 x15 +1 x32 >= -1 ;
-1 x0 -1 x1 -1 x14 -1 x15 +1 x32 >= -3 ;
+1 x0 +1 x1 +1 x16 +1 x17 +1 x32 >= 1 ;
-1 x0 +1 x1 -1 x16 +1 x17 +1 x32 >= -1 ;
+1 x0 -1 x1 +1 x16 -1 x17 +1 x32 >= -1 ;
-1 x0 -1 x1 -1 x16 -1 x17 +1 x32 >= -3 ;
+1 x0 +1 x1 +1 x28 +1 x29 +1 x33 >= 1 ;
-1 x0 +1 x1 -1 x28 +1 x29 +1 x33 >= -1 ;
+1 x0 -1 x1 +1 x28 -1 x29 +1 x33 >= -1 ;
-1 x0 -1 x1 -1 x28 -1 x29 +1 x33 >= -3 ;
+1 x0 -1 x2 -1 x52 <= 0 ;
-1 x0 +1 x2 -1 x52 <= 0 ;
+1 x1 -1 x3 -1 x52 <= 0 ;
-1 x1 +1 x3 -1 x52 <= 0 ;
+1 x2 +1 x3 +1 x8 +1 x9 +1 x30 >= 1 ;
-1 x2 +1 x3 -1 x8 +1 x9 +1 x30 >= -1 ;
+1 x2 -1 x3 +1 x8 -1 x9 +1 x30 >= -1 ;
-1 x2 -1 x3 -1 x8 -1 x9 +1 x30 >= -3 ;
+1 x2 +1 x3 +1 x10 +1 x11 +1 x30 >= 1 ;
-1 x2 +1 x3 -1 x10 +1 x11 +1 x30 >= -1 ;
+1 x2 -1 x3 +1 x10 -1 x11 +1 x30 >= -1 ;
-1 x2 -1 x3 -1 x10 -1 x11 +1 x30 >= -3 ;
+1 x2 +1 x3 +1 x28 +1 x29 +1 x33 >= 1 ;
-1 x2 +1 x3 -1 x28 +1 x29 +1 x33 >= -1 ;
+1 x2 -1 x3 +1 x28 -1 x29 +1 x33 >= -1 ;
-1 x2 -1 x3 -1 x28 -1 x29 +1 x33 >= -3 ;
+1 x2 -1 x4 -1 x53 <= 0 ;
-1 x2 +1 x4 -1 x53 <= 0 ;
+1 x3 -1 x5 -1 x53 <= 0 ;
-1 x3 +1 x5 -1 x53 <= 0 ;
+1 x4 +1 x5 +1 x6 +1 x7 +1 x34 >= 1 ;
-1 x4 +1 x5 -1 x6 +1 x7 +1 x34 >= -1 ;
+1 x4 -1 x5 +1 x6 -1 x7 +1 x34 >= -1 ;
-1 x4 -1 x5 -1 x6 -1 x7 +1 x34 >= -3 ;
+1 x4 +1 x5 +1 x8 +1 x9 +1 x30 >= 1 ;
-1 x4 +1 x5 -1 x8 +1 x9 +1 x30 >= -1 ;
+1 x4 -1 x5 +1 x8 -1 x9 +1 x30 >= -1 ;
-1 x4 -1 x5 -1 x8 -1 x9 +1 x30 >= -3 ;
+1 x4 +1 x5 +1 x10 +1 x11 +1 x30 >= 1 ;
-1 x4 +1 x5 -1 x10 +1 x11 +1 x30 >= -1 ;
+1 x4 -1 x5 +1 x10 -1 x11 +1 x30 >= -1 ;
-1 x4 -1 x5 -1 x10 -1 x11 +1 x30 >= -3 ;
+1 x4 +1 x5 +1 x28 +1 x29 +1 x33 >= 1 ;
-1 x4 +1 x5 -1 x28 +1 x29 +1 x33 >= -1 ;
+1 x4 -1 x5 +1 x28 -1 x29 +1 x33 >= -1 ;
-1 x4 -1 x5 -1 x28 -1 x29 +1 x33 >= -3 ;
+1 x6 +1 x7 +1 x10 +1 x11 +1 x36 >= 1 ;
-1 x6 +1 x7 -1 x10 +1 x11 +1 x36 >= -1 ;
+1 x6 -1 x7 +1 x10 -1 x11 +1 x36 >= -1 ;
-1 x6 -1 x7 -1 x10 -1 x11 +1 x36 >= -3 ;
+1 x6 +1 x7 +1 x18 +1 x19 +1 x37 >= 1 ;
-1 x6 +1 x7 -1 x18 +1 x19 +1 x37 >= -1 ;
+1 x6 -1 x7 +1 x18 -1 x19 +1 x37 >= -1 ;
-1 x6 -1 x7 -1 x18 -1 x19 +1 x37 >= -3 ;
+1 x8 +1 x9 +1 x12 +1 x13 +1 x39 >= 1 ;
-1 x8 +1 x9 -1 x12 +1 x13 +1 x39 >= -1 ;
+1 x8 -1 x9 +1 x12 -1 x13 +1 x39 >= -1 ;
-1 x8 -1 x9 -1 x12 -1 x13 +1 x39 >= -3 ;
+1 x8 -1 x10 -1 x54 <= 0 ;
-1 x8 +1 x10 -1 x54 <= 0 ;
+1 x9 -1 x11 -1 x54 <= 0 ;
-1 x9 +1 x11 -1 x54 <= 0 ;
+1 x10 +1 x11 +1 x12 +1 x13 +1 x39 >= 1 ;
-1 x10 +1 x11 -1 x12 +1 x13 +1 x39 >= -1 ;
+1 x10 -1 x11 +1 x12 -1 x13 +1 x39 >= -1 ;
-1 x10 -1 x11 -1 x12 -1 x13 +1 x39 >= -3 ;
+1 x12 +1 x13 +1 x14 +1 x15 +1 x43 >= 1 ;
-1 x12 +1 x13 -1 x14 +1 x15 +1 x43 >= -1 ;
+1 x12 -1 x13 +1 x14 -1 x15 +1 x43 >= -1 ;
-1 x12 -1 x13 -1 x14 -1 x15 +1 x43 >= -3 ;
+1 x14 +1 x15 +1 x26 +1 x27 +1 x46 >= 1 ;
-1 x14 +1 x15 -1 x26 +1 x27 +1 x46 >= -1 ;
+1 x14 -1 x15 +1 x26 -1 x27 +1 x46 >= -1 ;
-1 x14 -1 x15 -1 x26 -1 x27 +1 x46 >= -3 ;
+1 x14 -1 x16 -1 x55 <= 0 ;
-1 x14 +1 x16 -1 x55 <= 0 ;
+1 x15 -1 x17 -1 x55 <= 0 ;
-1 x15 +1 x17 -1 x55 <= 0 ;
+1 x16 +1 x17 +1 x24 +1 x25 +1 x47 >= 1 ;
-1 x16 +1 x17 -1 x24 +1 x25 +1 x47 >= -1 ;
+1 x16 -1 x17 +1 x24 -1 x25 +1 x47 >= -1 ;
-1 x16 -1 x17 -1 x24 -1 x25 +1 x47 >= -3 ;
+1 x16 +1 x17 +1 x26 +1 x27 +1 x46 >= 1 ;
-1 x16 +1 x17 -1 x26 +1 x27 +1 x46 >= -1 ;
+1 x16 -1 x17 +1 x26 -1 x27 +1 x46 >= -1 ;
-1 x16 -1 x17 -1 x26 -1 x27 +1 x46 >= -3 ;
+1 x16 -1 x18 -1 x56 <= 0 ;
-1 x16 +1 x18 -1 x56 <= 0 ;
+1 x17 -1 x19 -1 x56 <= 0 ;
-1 x17 +1 x19 -1 x56 <= 0 ;
+1 x16 -1 x20 -1 x57 <= 0 ;
-1 x16 +1 x20 -1 x57 <= 0 ;
+1 x17 -1 x21 -1 x57 <= 0 ;
-1 x17 +1 x21 -1 x57 <= 0 ;
+1 x16 -1 x22 -1 x58 <= 0 ;
-1 x16 +1 x22 -1 x58 <= 0 ;
+1 x17 -1 x23 -1 x58 <= 0 ;
-1 x17 +1 x23 -1 x58 <= 0 ;
+1 x18 +1 x19 +1 x24 +1 x25 +1 x47 >= 1 ;
-1 x18 +1 x19 -1 x24 +1 x25 +1 x47 >= -1 ;
+1 x18 -1 x19 +1 x24 -1 x25 +1 x47 >= -1 ;
-1 x18 -1 x19 -1 x24 -1 x25 +1 x47 >= -3 ;
+1 x20 +1 x21 +1 x24 +1 x25 +1 x47 >= 1 ;
-1 x20 +1 x21 -1 x24 +1 x25 +1 x47 >= -1 ;
+1 x20 -1 x21 +1 x24 -1 x25 +1 x47 >= -1 ;
-1 x20 -1 x21 -1 x24 -1 x25 +1 x47 >= -3 ;
+1 x20 +1 x21 +1 x26 +1 x27 +1 x46 >= 1 ;
-1 x20 +1 x21 -1 x26 +1 x27 +1 x46 >= -1 ;
+1 x20 -1 x21 +1 x26 -1 x27 +1 x46 >= -1 ;
-1 x20 -1 x21 -1 x26 -1 x27 +1 x46 >= -3 ;
+1 x22 +1 x23 +1 x24 +1 x25 +1 x47 >= 1 ;
-1 x22 +1 x23 -1 x24 +1 x25 +1 x47 >= -1 ;
+1 x22 -1 x23 +1 x24 -1 x25 +1 x47 >= -1 ;
-1 x22 -1 x23 -1 x24 -1 x25 +1 x47 >= -3 ;
+1 x0 +1 x1 <= 1 ;
+1 x2 +1 x3 <= 1 ;
+1 x4 +1 x5 <= 1 ;
+1 x6 +1 x7 <= 1 ;
+1 x8 +1 x9 <= 1 ;
+1 x10 +1 x11 <= 1 ;
+1 x12 +1 x13 <= 1 ;
+1 x14 +1 x15 <= 1 ;
+1 x16 +1 x17 <= 1 ;
+1 x18 +1 x19 <= 1 ;
+1 x20 +1 x21 <= 1 ;
+1 x22 +1 x23 <= 1 ;
+1 x24 +1 x25 <= 1 ;
+1 x26 +1 x27 <= 1 ;
+1 x28 +1 x29 <= 1 ;
